<number of tasks>
250

<cycle time>
1000

<order strength>
0.597


<task times>
1 531
2 692
3 502
4 284
5 479
6 487
7 326
8 614
9 454
10 353
11 729
12 550
13 380
14 446
15 296
16 498
17 326
18 638
19 525
20 605
21 534
22 399
23 400
24 364
25 497
26 438
27 427
28 625
29 384
30 573
31 423
32 403
33 549
34 652
35 366
36 586
37 510
38 529
39 530
40 541
41 523
42 373
43 454
44 356
45 746
46 407
47 293
48 607
49 239
50 320
51 463
52 495
53 352
54 430
55 509
56 420
57 420
58 509
59 535
60 394
61 473
62 545
63 549
64 612
65 360
66 423
67 373
68 394
69 433
70 456
71 624
72 523
73 685
74 624
75 353
76 474
77 548
78 319
79 633
80 466
81 471
82 547
83 457
84 695
85 578
86 558
87 607
88 452
89 828
90 506
91 596
92 619
93 442
94 520
95 347
96 576
97 249
98 552
99 503
100 604
101 289
102 432
103 482
104 899
105 615
106 419
107 656
108 425
109 611
110 656
111 487
112 350
113 565
114 393
115 616
116 601
117 608
118 629
119 571
120 330
121 496
122 697
123 620
124 641
125 530
126 469
127 596
128 413
129 390
130 553
131 493
132 535
133 532
134 438
135 611
136 679
137 422
138 659
139 450
140 498
141 481
142 579
143 526
144 555
145 642
146 310
147 430
148 457
149 466
150 518
151 610
152 258
153 458
154 385
155 429
156 579
157 592
158 550
159 521
160 439
161 276
162 649
163 741
164 455
165 451
166 593
167 388
168 444
169 411
170 366
171 354
172 533
173 652
174 510
175 541
176 690
177 542
178 447
179 392
180 672
181 433
182 625
183 634
184 456
185 559
186 596
187 611
188 368
189 425
190 476
191 425
192 803
193 474
194 405
195 436
196 357
197 671
198 411
199 556
200 445
201 530
202 560
203 409
204 508
205 483
206 386
207 530
208 327
209 518
210 416
211 563
212 449
213 598
214 581
215 293
216 493
217 531
218 538
219 511
220 502
221 478
222 690
223 465
224 400
225 239
226 275
227 483
228 259
229 363
230 213
231 589
232 457
233 309
234 613
235 402
236 507
237 331
238 755
239 387
240 353
241 485
242 575
243 497
244 516
245 442
246 509
247 667
248 463
249 571
250 444

<precedence relations>
1,217
2,188
3,62
4,62
5,81
6,81
7,171
8,9
8,10
8,11
8,12
8,13
8,14
8,15
8,16
9,138
10,34
11,114
12,62
13,62
14,149
15,149
16,17
16,18
16,19
16,20
16,21
16,22
16,23
17,188
18,34
19,34
20,114
21,114
22,62
23,24
23,25
23,26
23,27
23,28
23,29
23,30
23,31
23,32
23,33
24,138
25,34
26,34
27,189
28,114
29,62
30,230
31,171
32,149
33,35
33,36
33,37
33,38
33,39
33,40
33,41
33,42
33,43
33,44
33,45
34,48
34,49
34,50
34,51
34,52
34,53
34,54
34,55
34,57
35,114
36,114
37,62
38,62
39,81
40,81
41,171
42,149
43,149
44,46
44,47
44,58
44,105
44,106
45,46
45,56
45,100
46,138
47,188
48,61
48,65
49,67
49,118
49,153
49,174
50,64
51,63
52,59
52,160
53,174
53,186
54,60
54,137
54,150
54,168
55,66
56,62
57,59
57,60
57,66
57,83
57,104
57,105
57,106
58,59
58,111
58,127
59,217
60,217
61,114
62,69
62,70
62,71
62,72
62,73
62,74
62,75
62,76
62,77
62,78
62,79
62,80
62,82
62,105
63,81
64,81
65,149
66,67
66,68
67,188
68,114
69,84
69,104
70,141
71,98
71,106
72,83
73,139
73,163
74,83
74,97
75,106
76,83
76,84
76,106
77,83
77,103
78,134
79,83
80,104
80,165
81,83
81,84
81,85
81,86
81,87
81,88
81,89
81,90
81,91
81,92
81,93
81,94
81,95
81,96
81,98
82,106
83,114
84,114
85,149
86,149
87,99
87,119
88,99
89,101
89,105
90,106
91,103
91,180
92,119
92,161
92,180
93,159
94,100
95,115
95,119
95,150
96,104
96,135
97,99
97,101
97,102
97,103
97,116
98,113
99,114
100,114
101,114
102,114
103,171
104,149
105,149
106,107
106,108
106,109
106,110
106,111
106,112
106,113
107,114
108,114
109,114
110,205
111,149
112,149
113,114
113,115
113,116
113,117
113,118
114,120
114,121
114,122
114,123
114,124
114,125
114,126
114,127
115,205
116,149
117,149
118,119
118,205
119,241
120,241
121,130
121,131
122,129
122,131
123,129
123,130
123,131
123,132
124,128
124,129
124,142
124,150
125,128
125,129
126,206
127,128
127,130
127,137
127,159
128,189
129,189
130,149
131,133
131,134
131,135
131,136
132,136
133,138
134,138
135,205
136,137
136,138
136,139
136,140
136,141
136,142
136,143
137,217
138,144
138,145
138,146
138,147
138,148
138,149
138,150
139,171
140,149
141,149
142,149
142,159
143,150
143,173
144,154
144,160
145,151
145,153
146,154
146,173
147,151
147,185
147,231
148,209
149,152
149,155
149,156
149,157
149,158
150,159
151,188
152,189
153,230
154,171
155,169
155,173
156,160
156,162
156,166
156,184
157,161
157,163
157,164
158,160
158,167
158,172
159,164
159,165
160,188
161,189
162,205
163,171
164,171
165,171
166,168
166,169
166,172
166,182
167,170
167,173
167,174
167,190
168,241
169,188
170,189
171,175
171,176
171,177
171,178
171,179
173,217
174,180
174,206
174,230
175,186
175,188
175,229
176,232
177,181
179,230
180,208
181,182
181,183
181,184
181,185
181,186
181,187
182,188
183,189
184,230
185,230
186,190
186,191
186,232
187,188
188,192
188,193
188,194
188,195
189,196
189,197
189,198
189,199
189,200
189,201
189,202
189,203
189,204
190,205
191,206
192,209
195,209
195,228
197,208
197,242
199,229
199,240
200,216
201,209
201,240
202,207
202,218
203,217
204,217
205,210
205,211
205,212
205,213
205,214
205,215
207,217
208,217
209,241
212,250
214,228
215,242
216,218
216,232
217,219
217,220
217,221
217,222
217,223
217,224
217,225
217,226
217,227
218,228
218,229
218,231
220,231
222,232
222,233
224,241
226,234
228,230
230,235
230,236
230,237
230,238
230,239
231,233
231,234
231,240
233,241
234,241
235,243
237,243
238,242
241,244
241,245
241,246
241,247
241,248
241,249
241,250

<end>
